
******************************************************************************
This program contains Ipopt, a library for large-scale nonlinear optimization.
 Ipopt is released as open source code under the Eclipse Public License (EPL).
         For more information visit http://projects.coin-or.org/Ipopt

This version of Ipopt was compiled from source code available at
    https://github.com/IDAES/Ipopt as part of the Institute for the Design of
    Advanced Energy Systems Process Systems Engineering Framework (IDAES PSE
    Framework) Copyright (c) 2018-2019. See https://github.com/IDAES/idaes-pse.

This version of Ipopt was compiled using HSL, a collection of Fortran codes
    for large-scale scientific computation.  All technical papers, sales and
    publicity material resulting from use of the HSL codes within IPOPT must
    contain the following acknowledgement:
        HSL, a collection of Fortran codes for large-scale scientific
        computation. See http://www.hsl.rl.ac.uk.
******************************************************************************

This is Ipopt version 3.13.2, running with linear solver ma27.

Number of nonzeros in equality constraint Jacobian...:      808
Number of nonzeros in inequality constraint Jacobian.:        0
Number of nonzeros in Lagrangian Hessian.............:      702

Total number of variables............................:      351
                     variables with only lower bounds:      108
                variables with lower and upper bounds:      189
                     variables with only upper bounds:        0
Total number of equality constraints.................:      350
Total number of inequality constraints...............:        0
        inequality constraints with only lower bounds:        0
   inequality constraints with lower and upper bounds:        0
        inequality constraints with only upper bounds:        0

iter    objective    inf_pr   inf_du lg(mu)  ||d||  lg(rg) alpha_du alpha_pr  ls
   0  0.0000000e+00 4.54e-01 4.44e-16  -1.0 0.00e+00    -  0.00e+00 0.00e+00   0
   1  6.9747696e+00 1.83e+00 4.51e+04  -1.0 2.60e+05    -  5.65e-01 6.21e-01h  1
   2  7.7481171e+00 1.67e+00 4.15e+04  -1.0 1.26e+05    -  8.30e-01 7.18e-02h  1
   3  8.3772128e+00 1.58e+00 3.93e+04  -1.0 1.67e+05    -  8.35e-01 5.65e-02h  1
   4  2.5706916e+01 1.09e-01 1.23e+04  -1.0 1.60e+05    -  8.48e-01 9.90e-01h  1
   5  2.8061717e+01 5.31e-03 2.06e+03  -1.0 1.55e+04    -  3.33e-01 9.90e-01h  1
   6  2.8102999e+01 6.98e-05 4.84e+04  -1.0 2.64e+02    -  8.29e-01 9.90e-01h  1
   7  2.8111596e+01 4.13e-06 1.34e+07  -1.0 1.32e+02    -  5.45e-01 9.90e-01h  1
   8  2.8128308e+01 4.00e-07 1.12e+09  -1.0 2.68e+02    -  6.17e-01 9.90e-01H  1
   9  2.8128445e+01 4.00e-07 1.98e+11  -1.0 5.63e+02    -  6.64e-01 3.87e-03h  9
iter    objective    inf_pr   inf_du lg(mu)  ||d||  lg(rg) alpha_du alpha_pr  ls
  10  2.8128520e+01 4.00e-07 3.42e+11  -1.0 1.22e+03    -  4.80e-01 9.67e-04h 11
  11  2.8128572e+01 4.00e-07 4.62e+11  -1.0 1.70e+03    -  3.98e-01 4.83e-04h 12
  12  2.8128603e+01 3.99e-07 5.69e+11  -1.0 2.05e+03    -  3.53e-01 2.42e-04h 13
  13  2.8128638e+01 3.99e-07 6.68e+11  -1.0 2.30e+03    -  3.28e-01 2.42e-04h 13
  14  2.8128657e+01 3.99e-07 7.62e+11  -1.0 2.49e+03    -  3.10e-01 1.21e-04h 14
  15  2.8128677e+01 3.99e-07 8.53e+11  -1.0 2.62e+03    -  3.00e-01 1.21e-04h 14
  16  2.8128698e+01 3.99e-07 9.41e+11  -1.0 2.73e+03    -  2.92e-01 1.21e-04h 14
  17  2.8128720e+01 3.99e-07 1.03e+12  -1.0 2.79e+03    -  2.88e-01 1.21e-04h 14
  18  2.8128741e+01 3.99e-07 1.11e+12  -1.0 2.85e+03    -  2.83e-01 1.21e-04h 14
  19  2.8310325e+01 1.68e-03 2.04e+11  -1.0 2.88e+03    -  2.81e-01 9.90e-01w  1
iter    objective    inf_pr   inf_du lg(mu)  ||d||  lg(rg) alpha_du alpha_pr  ls
  20  2.8315994e+01 2.74e-05 4.18e+09  -1.0 9.29e+01    -  9.90e-01 9.90e-01w  1
In iteration 20, 27 Slacks too small, adjusting variable bounds
  21  2.8131878e+01 1.90e-03 2.50e+12  -1.7 2.93e+03    -  9.94e-01 9.90e-01h  1
  22  2.8139542e+01 1.79e-05 8.20e-02  -1.7 1.25e+02    -  1.00e+00 1.00e+00h  1
  23  2.8098938e+01 1.04e-04 5.85e+11  -8.6 6.56e+02    -  9.99e-01 9.81e-01f  1
  24  2.8098819e+01 1.69e-10 2.42e+06  -8.6 1.70e+00    -  1.00e+00 1.00e+00h  1
  25  2.8098819e+01 3.17e-12 4.66e-10  -8.6 3.68e-05    -  1.00e+00 1.00e+00h  1

Number of Iterations....: 25

                                   (scaled)                 (unscaled)
Objective...............:   2.8098818916224502e+01    2.8098818916224502e+01
Dual infeasibility......:   4.6566128730773926e-10    4.6566128730773926e-10
Constraint violation....:   3.1707969583294471e-12    3.1707969583294471e-12
Complementarity.........:   2.5059658808762883e-09    2.5059658808762883e-09
Overall NLP error.......:   3.1707969583294471e-12    2.5059658808762883e-09


Number of objective function evaluations             = 185
Number of objective gradient evaluations             = 26
Number of equality constraint evaluations            = 185
Number of inequality constraint evaluations          = 0
Number of equality constraint Jacobian evaluations   = 26
Number of inequality constraint Jacobian evaluations = 0
Number of Lagrangian Hessian evaluations             = 25
Total CPU secs in IPOPT (w/o function evaluations)   =      0.060
Total CPU secs in NLP function evaluations           =      1.325

EXIT: Optimal Solution Found.
